NAME: I16588-n35-k6
COMMENT : (Fake et al, No of trucks: 6, Optimal value: )
TYPE : CVRP
DIMENSION : 35
EDGE_WEIGHT_TYPE : EUC_2D
CAPACITY : 41
NODE_COORD_SECTION
1 904 265
2 284 657
3 461 520
4 205 776
5 555 509
6 587 489
7 756 12
8 836 497
9 95 42
10 408 891
11 614 96
12 853 934
13 10 518
14 186 359
15 201 728
16 730 19
17 758 739
18 930 789
19 823 511
20 318 752
21 409 837
22 242 222
23 856 96
24 880 125
25 852 894
26 695 314
27 833 136
28 338 47
29 375 180
30 581 540
31 445 635
32 266 441
33 269 591
34 676 549
35 960 717
DEMAND_SECTION
1 0
2 9
3 11
4 10
5 4
6 4
7 3
8 5
9 6
10 11
11 7
12 8
13 4
14 2
15 1
16 1
17 6
18 8
19 11
20 2
21 5
22 9
23 10
24 2
25 7
26 11
27 6
28 2
29 8
30 8
31 3
32 1
33 4
34 8
35 6
DEPOT_SECTION
 1
 -1
 EOF 